2365
6181
6658
9809
4422
664
9211
2271
8690
7545
3757
6476
5381
5633
7896
4660
6786
8842
9652
1062
4566
10065
1581
5965
2505
2441
3016
6602
7833
967
2751
3793
8702
6466
2303
8482
3048
5202
440
2486
1212
3155
471
5132
4473
8163
2151
7290
2146
4090
